<number of tasks>
32

<cycle time>
2357

<task times>
1 458
2 276
3 520
4 1400
5 352
6 196
7 214
8 456
9 646
10 512
11 408
12 262
13 544
14 202
15 458
16 694
17 616
18 678
19 328
20 324
21 100
22 352
23 544
24 500
25 382
26 858
27 388
28 352
29 428
30 238
31 258
32 196

<precedence relations>
1,5
2,6
3,9
4,15
5,6
6,7
6,8
6,9
7,21
8,21
9,10
9,11
10,16
11,12
12,13
13,14
13,15
14,16
14,17
15,17
16,18
17,19
18,21
19,20
20,21
21,22
21,23
21,24
22,25
23,32
24,32
25,26
26,27
27,28
28,29
29,30
30,31
31,32

<setup times forward>
1,2:178
1,3:178
2,1:178
2,4:178
2,5:178
3,1:178
3,4:178
3,5:178
3,7:117
3,8:247
3,9:247
4,2:178
4,3:178
4,6:178
4,7:61
4,8:69
4,9:69
4,10:69
4,11:69
4,12:69
4,13:61
4,14:61
4,15:42
4,16:61
4,18:61
5,2:178
5,3:178
5,6:178
6,4:178
6,7:117
6,8:247
6,9:247
7,3:117
7,4:61
7,8:130
7,9:130
7,10:130
7,11:130
7,12:130
7,15:19
7,17:19
7,19:19
7,20:19
7,21:19
8,3:247
8,4:69
8,7:130
8,13:130
8,14:130
8,15:111
8,16:130
8,17:111
8,18:130
8,19:111
8,20:111
8,21:111
9,4:69
9,7:130
10,4:69
10,7:130
10,13:130
10,14:130
10,15:111
10,16:130
10,17:111
10,19:111
10,20:111
11,4:69
11,7:130
12,4:69
12,7:130
12,13:130
13,4:61
13,8:130
13,10:130
13,15:19
14,4:61
14,8:130
14,10:130
14,15:19
14,17:19
15,7:19
15,8:111
15,10:111
15,14:19
15,16:19
15,18:19
16,4:61
16,8:130
16,15:19
16,17:19
16,19:19
16,20:19
17,7:19
17,8:111
17,10:111
17,16:19
17,18:19
18,4:61
18,8:130
18,15:19
18,17:19
18,19:19
18,20:19
18,21:19
19,7:19
19,8:111
19,10:111
19,16:19
19,18:19
20,7:19
20,8:111
20,10:111
20,16:19
20,18:19
21,23:143
21,24:143
22,23:143
22,24:143
22,25:143
23,22:143
23,27:92
23,28:92
23,29:92
23,30:92
23,31:92
23,32:92
24,22:143
24,27:92
24,28:92
24,29:92
24,30:92
24,31:92
24,32:92
26,27:92
27,23:92
27,24:92
28,23:92
28,24:92
29,23:92
29,24:92
30,23:92
30,24:92
31,23:92
31,24:92

<setup times backward>
1,1:25
1,4:25
2,1:203
2,2:25
2,3:25
2,4:203
2,5:203
3,1:203
3,2:25
3,3:25
3,4:203
3,5:203
3,6:25
3,7:142
3,8:272
4,1:25
4,4:25
4,5:25
4,8:94
4,9:94
4,10:94
4,11:94
4,12:94
5,1:25
5,4:25
5,5:25
6,1:203
6,2:25
6,3:25
6,4:203
6,5:203
6,6:25
7,1:86
7,4:86
7,5:86
7,7:25
7,8:155
7,9:155
7,10:155
7,11:155
7,12:155
7,13:25
7,14:25
7,15:44
7,16:25
7,17:44
7,18:25
7,19:44
7,20:44
8,8:25
8,9:25
8,10:25
8,11:25
8,12:25
9,8:25
9,9:25
10,8:25
10,9:25
10,10:25
10,11:25
10,12:25
11,8:25
11,9:25
11,10:25
11,11:25
12,8:25
12,9:25
12,10:25
12,11:25
12,12:25
13,1:86
13,4:86
13,5:86
13,7:25
13,8:155
13,9:155
13,10:155
13,11:155
13,12:155
13,13:25
14,1:86
14,4:86
14,5:86
14,7:25
14,8:155
14,9:155
14,10:155
14,11:155
14,12:155
14,13:25
14,14:25
14,15:44
15,1:67
15,4:67
15,5:67
15,7:6
15,8:136
15,9:136
15,10:136
15,11:136
15,12:136
15,13:6
15,14:6
15,15:25
15,16:6
15,18:6
16,1:86
16,4:86
16,5:86
16,7:25
16,8:155
16,9:155
16,10:155
16,11:155
16,12:155
16,13:25
16,14:25
16,15:44
16,16:25
16,17:44
16,19:44
16,20:44
17,1:67
17,4:67
17,5:67
17,7:6
17,8:136
17,9:136
17,10:136
17,11:136
17,12:136
17,13:6
17,14:6
17,15:25
17,16:6
17,17:25
17,18:6
18,1:86
18,4:86
18,5:86
18,7:25
18,8:155
18,9:155
18,10:155
18,11:155
18,12:155
18,13:25
18,14:25
18,15:44
18,16:25
18,17:44
18,18:25
18,19:44
18,20:44
19,1:67
19,4:67
19,5:67
19,7:6
19,8:136
19,9:136
19,10:136
19,11:136
19,12:136
19,13:6
19,14:6
19,15:25
19,16:6
19,17:25
19,18:6
19,19:25
20,1:67
20,4:67
20,5:67
20,7:6
20,8:136
20,9:136
20,10:136
20,11:136
20,12:136
20,13:6
20,14:6
20,15:25
20,16:6
20,17:25
20,18:6
20,19:25
20,20:25
21,1:67
21,4:67
21,5:67
21,7:6
21,8:136
21,9:136
21,10:136
21,11:136
21,12:136
21,13:6
21,14:6
21,15:25
21,16:6
21,17:25
21,18:6
21,19:25
21,20:25
21,21:25
22,1:67
22,4:67
22,5:67
22,7:6
22,8:136
22,9:136
22,10:136
22,11:136
22,12:136
22,13:6
22,14:6
22,15:25
22,16:6
22,17:25
22,18:6
22,19:25
22,20:25
22,21:25
22,22:25
22,23:168
22,24:168
23,23:25
23,24:25
23,25:25
23,26:25
24,23:25
24,24:25
24,25:25
24,26:25
25,23:25
25,24:25
25,25:25
26,23:25
26,24:25
26,25:25
26,26:25
27,1:16
27,4:16
27,5:16
27,8:85
27,9:85
27,10:85
27,11:85
27,12:85
27,23:117
27,24:117
27,25:117
27,26:117
27,27:25
28,1:16
28,4:16
28,5:16
28,8:85
28,9:85
28,10:85
28,11:85
28,12:85
28,23:117
28,24:117
28,25:117
28,26:117
28,27:25
28,28:25
29,1:16
29,4:16
29,5:16
29,8:85
29,9:85
29,10:85
29,11:85
29,12:85
29,23:117
29,24:117
29,25:117
29,26:117
29,27:25
29,28:25
29,29:25
30,1:16
30,4:16
30,5:16
30,8:85
30,9:85
30,10:85
30,11:85
30,12:85
30,23:117
30,24:117
30,25:117
30,26:117
30,27:25
30,28:25
30,29:25
30,30:25
31,1:16
31,4:16
31,5:16
31,8:85
31,9:85
31,10:85
31,11:85
31,12:85
31,23:117
31,24:117
31,25:117
31,26:117
31,27:25
31,28:25
31,29:25
31,30:25
31,31:25
32,1:16
32,4:16
32,5:16
32,8:85
32,9:85
32,10:85
32,11:85
32,12:85
32,23:117
32,24:117
32,25:117
32,26:117
32,27:25
32,28:25
32,29:25
32,30:25
32,31:25
32,32:25

<end>

<optimal SALBP-1 value>
7


<rand seed>
467321153

<Lower Bounds>
Lm1=6
Lms1=6
Lm2=1
Lm3=1
Lm4=7
Best=7

<Optimal Stations (Iterations: 10)>
7
